\* CCTVSurveliance *\
Minimize
CamerasInstalled: Place_1 + Place_10 + Place_11 + Place_12 + Place_13
 + Place_14 + Place_15 + Place_16 + Place_17 + Place_18 + Place_19 + Place_2
 + Place_20 + Place_21 + Place_22 + Place_23 + Place_24 + Place_25 + Place_26
 + Place_27 + Place_28 + Place_29 + Place_3 + Place_30 + Place_31 + Place_32
 + Place_33 + Place_34 + Place_35 + Place_36 + Place_37 + Place_38 + Place_39
 + Place_4 + Place_40 + Place_41 + Place_42 + Place_43 + Place_44 + Place_45
 + Place_46 + Place_47 + Place_48 + Place_49 + Place_5 + Place_6 + Place_7
 + Place_8 + Place_9
Subject To
_C1: Place_16 + Place_20 >= 1
_C10: Place_21 + Place_22 >= 1
_C11: Place_22 + Place_23 >= 1
_C12: Place_31 + Place_32 >= 1
_C13: Place_44 + Place_45 >= 1
_C14: Place_40 + Place_41 >= 1
_C15: Place_17 + Place_18 >= 1
_C16: Place_1 + Place_3 >= 1
_C17: Place_13 + Place_14 >= 1
_C18: Place_45 + Place_46 >= 1
_C19: Place_6 + Place_8 >= 1
_C2: Place_3 + Place_4 >= 1
_C20: Place_41 + Place_42 >= 1
_C21: Place_32 + Place_39 >= 1
_C22: Place_18 + Place_19 >= 1
_C23: Place_4 + Place_5 >= 1
_C24: Place_2 + Place_41 >= 1
_C25: Place_12 + Place_15 >= 1
_C26: Place_12 + Place_3 >= 1
_C27: Place_14 + Place_18 >= 1
_C28: Place_22 + Place_25 >= 1
_C29: Place_38 + Place_40 >= 1
_C3: Place_4 + Place_9 >= 1
_C30: Place_14 + Place_15 >= 1
_C31: Place_10 + Place_9 >= 1
_C32: Place_1 + Place_2 >= 1
_C33: Place_19 + Place_20 >= 1
_C34: Place_28 + Place_29 >= 1
_C35: Place_37 + Place_38 >= 1
_C36: Place_6 + Place_7 >= 1
_C37: Place_15 + Place_16 >= 1
_C38: Place_24 + Place_25 >= 1
_C39: Place_47 + Place_48 >= 1
_C4: Place_26 + Place_27 >= 1
_C40: Place_15 + Place_19 >= 1
_C41: Place_33 + Place_37 >= 1
_C42: Place_33 + Place_34 >= 1
_C43: Place_26 + Place_28 >= 1
_C44: Place_25 + Place_30 >= 1
_C45: Place_32 + Place_38 >= 1
_C46: Place_43 + Place_44 >= 1
_C47: Place_44 + Place_49 >= 1
_C48: Place_11 + Place_3 >= 1
_C49: Place_20 + Place_21 >= 1
_C5: Place_35 + Place_36 >= 1
_C50: Place_31 + Place_33 >= 1
_C51: Place_39 + Place_40 >= 1
_C52: Place_34 + Place_35 >= 1
_C53: Place_23 + Place_32 >= 1
_C54: Place_11 + Place_21 >= 1
_C55: Place_45 + Place_47 >= 1
_C56: Place_37 + Place_43 >= 1
_C57: Place_30 + Place_31 >= 1
_C58: Place_25 + Place_26 >= 1
_C6: Place_2 + Place_39 >= 1
_C7: Place_4 + Place_6 >= 1
_C8: Place_12 + Place_13 >= 1
_C9: Place_16 + Place_3 >= 1
Binaries
Place_1
Place_10
Place_11
Place_12
Place_13
Place_14
Place_15
Place_16
Place_17
Place_18
Place_19
Place_2
Place_20
Place_21
Place_22
Place_23
Place_24
Place_25
Place_26
Place_27
Place_28
Place_29
Place_3
Place_30
Place_31
Place_32
Place_33
Place_34
Place_35
Place_36
Place_37
Place_38
Place_39
Place_4
Place_40
Place_41
Place_42
Place_43
Place_44
Place_45
Place_46
Place_47
Place_48
Place_49
Place_5
Place_6
Place_7
Place_8
Place_9
End
